Maximize

1345.0 x_0 + 912.0 x_1 + 340.0 x_2 + 1172.0 x_3 + 1797.0 x_4 + 1652.0 x_5 + 1490.0 x_6 + 235.0 x_7 + 2085.0 x_8 + 462.0 x_9


Subject To

a0: 60 x_0 + 95 x_0 + 27 x_0 + 2 x_0 + 40 x_0 + 0 x_1 + 152 x_1 + 0 x_1 + 5 x_1 + 25 x_1 + 0 x_2 + 114 x_2 + 0 x_2 + 0 x_2 + 0 x_2 + 75 x_3 + 76 x_3 + 21 x_3 + 2 x_3 + 30 x_3 + 135 x_4 + 152 x_4 + 0 x_4 + 10 x_4 + 40 x_4 + 135 x_5 + 171 x_5 + 27 x_5 + 6 x_5 + 0 x_5 + 120 x_6 + 95 x_6 + 15 x_6 + 10 x_6 + 10 x_6 + 0 x_7 + 0 x_7 + 0 x_7 + 5 x_7 + 0 x_7 + 90 x_8 + 171 x_8 + 30 x_8 + 8 x_8 + 50 x_8 + 75 x_9 + 57 x_9 + 0 x_9 + 0 x_9 + 0 x_9 <= 1560
b0: 32 x_0 + 15 x_0 + 117 x_0 + 34 x_0 + 112 x_0 + 0 x_1 + 24 x_1 + 0 x_1 + 85 x_1 + 70 x_1 + 0 x_2 + 18 x_2 + 0 x_2 + 0 x_2 + 0 x_2 + 40 x_3 + 12 x_3 + 91 x_3 + 34 x_3 + 84 x_3 + 72 x_4 + 24 x_4 + 0 x_4 + 170 x_4 + 112 x_4 + 72 x_5 + 27 x_5 + 117 x_5 + 102 x_5 + 0 x_5 + 64 x_6 + 15 x_6 + 65 x_6 + 170 x_6 + 28 x_6 + 0 x_7 + 0 x_7 + 0 x_7 + 85 x_7 + 0 x_7 + 48 x_8 + 27 x_8 + 130 x_8 + 136 x_8 + 140 x_8 + 40 x_9 + 9 x_9 + 0 x_9 + 0 x_9 + 0 x_9 <= 1645
c0: x_0 <= 2
c1: x_1 <= 3
c2: x_2 <= 5
c3: x_3 <= 2
c4: x_4 <= 2
c5: x_5 <= 2
c6: x_6 <= 2
c7: x_7 <= 5
c8: x_8 <= 2
c9: x_9 <= 4





General

 x_0 x_1 x_2 x_3 x_4 x_5 x_6 x_7 x_8 x_9



End
